qbf_easy_train/easy_929_SAT.qdimacs
p cnf 22 54
a 9 11 6 0
e 1 2 3 4 5 7 8 10 12 13 14 15 16 17 18 19 20 21 22 0
3 2 0
3 1 0
-2 -1 -3 0
4 -1 0
4 -3 0
1 3 -4 0
5 4 0
5 3 0
-4 -3 -5 0
-2 -6 -7 0
2 6 -7 0
-2 6 7 0
2 -6 7 0
-8 5 0
-8 -7 0
-5 7 8 0
9 -10 -11 0
-9 10 -11 0
9 10 11 0
-9 -10 11 0
-12 8 0
-12 11 0
-8 -11 12 0
-14 13 0
-14 1 0
-13 -1 14 0
15 -2 -16 0
-15 2 -16 0
15 2 16 0
-15 -2 16 0
-14 -16 -17 0
14 16 -17 0
-14 16 17 0
14 -16 17 0
16 -18 -19 0
-16 18 -19 0
16 18 19 0
-16 -18 19 0
-4 -19 -20 0
4 19 -20 0
-4 19 20 0
4 -19 20 0
21 17 0
21 -20 0
-17 20 -21 0
-22 -12 0
-22 -21 0
12 21 22 0
-12 16 -1 -8 0
-17 7 11 18 20 -15 0
-19 -18 -17 4 -3 -11 -12 -2 0
-21 -3 -16 7 -19 0
12 -4 11 -9 -3 0
22 0
