sat_easy_train/easy_929_SAT.dimacs
p cnf 141 479
2 3 -4 0
-2 -3 -4 0
2 -3 4 0
-2 3 4 0
4 5 -6 0
-4 -5 -6 0
4 -5 6 0
-4 5 6 0
-1 6 -7 0
1 -6 -7 0
-1 -6 7 0
1 6 7 0
12 -10 0
12 -11 0
10 11 -12 0
-12 9 -13 0
12 -9 -13 0
-12 -9 13 0
12 9 13 0
14 -1 0
14 10 0
1 -10 -14 0
15 8 0
15 -14 0
-8 14 -15 0
-13 -15 -16 0
13 15 -16 0
-13 15 16 0
13 -15 16 0
9 16 -17 0
-9 -16 -17 0
9 -16 17 0
-9 16 17 0
20 18 0
20 19 0
-18 -19 -20 0
21 17 0
21 20 0
-17 -20 -21 0
-22 8 0
-22 21 0
-8 -21 22 0
24 -8 0
24 23 0
8 -23 -24 0
12 25 0
-12 25 0
26 -6 0
26 -2 0
6 2 -26 0
-27 -25 0
-27 -26 0
25 26 27 0
27 -28 0
-27 -28 0
-24 28 -29 0
24 -28 -29 0
-24 -28 29 0
24 28 29 0
-30 29 0
-30 -4 0
-29 4 30 0
-22 30 -31 0
22 -30 -31 0
-22 -30 31 0
22 30 31 0
32 -7 0
32 31 0
7 -31 -32 0
-34 9 0
-34 11 0
-9 -11 34 0
-5 -34 -35 0
5 34 -35 0
-5 34 35 0
5 -34 35 0
35 3 -36 0
-35 -3 -36 0
35 -3 36 0
-35 3 36 0
37 -33 0
37 36 0
33 -36 -37 0
28 -37 -38 0
-28 37 -38 0
28 37 38 0
-28 -37 38 0
39 25 0
39 -11 0
-25 11 -39 0
-40 18 0
-40 -33 0
-18 33 40 0
-41 33 0
-41 -40 0
-33 40 41 0
-42 25 0
-42 1 0
-25 -1 42 0
-43 -42 0
-43 -3 0
42 3 43 0
44 18 0
44 43 0
-18 -43 -44 0
-45 -18 0
-45 44 0
18 -44 45 0
46 41 0
46 -45 0
-41 45 -46 0
-47 -39 0
-47 46 0
39 -46 47 0
-48 -38 0
-48 -47 0
38 47 48 0
26 -2 -49 0
-26 2 -49 0
26 2 49 0
-26 -2 49 0
-50 -49 0
-50 37 0
49 -37 50 0
-52 -51 0
-52 -5 0
51 5 52 0
-33 23 -53 0
33 -23 -53 0
-33 -23 53 0
33 23 53 0
54 -52 0
54 -53 0
52 53 -54 0
-50 -54 -55 0
50 54 -55 0
-50 54 55 0
50 -54 55 0
56 -8 -57 0
-56 8 -57 0
56 8 57 0
-56 -8 57 0
42 57 -58 0
-42 -57 -58 0
42 -57 58 0
-42 57 58 0
-58 51 -59 0
58 -51 -59 0
-58 -51 59 0
58 51 59 0
-58 60 -61 0
58 -60 -61 0
-58 -60 61 0
58 60 61 0
-62 18 0
-62 -49 0
-18 49 62 0
-61 62 -63 0
61 -62 -63 0
-61 -62 63 0
61 62 63 0
-64 -59 0
-64 -63 0
59 63 64 0
27 -14 -65 0
-27 14 -65 0
27 14 65 0
-27 -14 65 0
66 65 0
66 -30 0
-65 30 -66 0
67 -21 0
67 -28 0
21 28 -67 0
66 67 -68 0
-66 -67 -68 0
66 -67 68 0
-66 67 68 0
-69 -9 0
-69 13 0
9 -13 69 0
69 -70 0
-69 -70 0
-18 27 -71 0
18 -27 -71 0
-18 -27 71 0
18 27 71 0
72 -70 0
72 71 0
70 -71 -72 0
-68 -72 -73 0
68 72 -73 0
-68 72 73 0
68 -72 73 0
74 64 0
74 73 0
-64 -73 -74 0
75 -55 0
75 -74 0
55 74 -75 0
-76 48 0
-76 -75 0
-48 75 76 0
77 11 0
77 17 0
-11 -17 -77 0
78 77 0
78 21 0
-77 -21 -78 0
-52 18 -79 0
52 -18 -79 0
-52 -18 79 0
52 18 79 0
80 -78 0
80 79 0
78 -79 -80 0
-82 -5 0
-82 -81 0
5 81 82 0
80 -82 -83 0
-80 82 -83 0
80 82 83 0
-80 -82 83 0
84 83 0
84 80 0
-83 -80 -84 0
85 53 0
85 -51 0
-53 51 -85 0
86 -85 0
86 -43 0
85 43 -86 0
87 -16 0
87 -65 0
16 65 -87 0
88 -8 0
88 87 0
8 -87 -88 0
-86 -88 -89 0
86 88 -89 0
-86 88 89 0
86 -88 89 0
-84 -89 -90 0
84 89 -90 0
-84 89 90 0
84 -89 90 0
91 76 0
91 -90 0
-76 90 -91 0
-92 32 0
-92 -91 0
-32 91 92 0
-93 -65 0
-93 -19 0
65 19 93 0
-69 -93 -94 0
69 93 -94 0
-69 93 94 0
69 -93 94 0
3 22 -95 0
-3 -22 -95 0
3 -22 95 0
-3 22 95 0
-96 66 0
-96 85 0
-66 -85 96 0
-97 -95 0
-97 -96 0
95 96 97 0
98 -94 0
98 97 0
94 -97 -98 0
-92 -98 -99 0
92 98 -99 0
-92 98 99 0
92 -98 99 0
100 11 0
100 53 0
-11 -53 -100 0
-101 -12 0
-101 -5 0
12 5 101 0
70 57 -102 0
-70 -57 -102 0
70 -57 102 0
-70 57 102 0
103 -101 0
103 -102 0
101 102 -103 0
-13 -70 -104 0
13 70 -104 0
-13 70 104 0
13 -70 104 0
-103 104 -105 0
103 -104 -105 0
-103 -104 105 0
103 104 105 0
106 100 0
106 -105 0
-100 105 -106 0
-107 87 0
-107 -51 0
-87 51 107 0
108 29 0
108 -82 0
-29 82 -108 0
-109 -107 0
-109 108 0
107 -108 109 0
-110 -44 0
-110 24 0
44 -24 110 0
-19 65 -111 0
19 -65 -111 0
-19 -65 111 0
19 65 111 0
112 -20 0
112 111 0
20 -111 -112 0
113 110 0
113 112 0
-110 -112 -113 0
109 -113 -114 0
-109 113 -114 0
109 113 114 0
-109 -113 114 0
22 -16 -115 0
-22 16 -115 0
22 16 115 0
-22 -16 115 0
-116 -5 0
-116 -23 0
5 23 116 0
117 -115 0
117 -116 0
115 116 -117 0
114 117 -118 0
-114 -117 -118 0
114 -117 118 0
-114 117 118 0
79 -5 -119 0
-79 5 -119 0
79 5 119 0
-79 -5 119 0
52 -42 -120 0
-52 42 -120 0
52 42 120 0
-52 -42 120 0
-121 93 0
-121 -120 0
-93 120 121 0
122 -119 0
122 121 0
119 -121 -122 0
123 -16 0
123 33 0
16 -33 -123 0
-124 -123 0
-124 -1 0
123 1 124 0
125 -78 0
125 85 0
78 -85 -125 0
126 -69 0
126 -51 0
69 51 -126 0
-127 125 0
-127 -126 0
-125 126 127 0
128 11 0
128 -2 0
-11 2 -128 0
-129 -127 0
-129 -128 0
127 128 129 0
130 -124 0
130 -129 0
124 129 -130 0
-122 -130 -131 0
122 130 -131 0
-122 130 131 0
122 -130 131 0
-34 -7 -132 0
34 7 -132 0
-34 7 132 0
34 -7 132 0
133 131 0
133 132 0
-131 -132 -133 0
134 118 0
134 -133 0
-118 133 -134 0
135 106 0
135 -134 0
-106 134 -135 0
-136 36 0
-136 -51 0
-36 51 136 0
-56 136 -137 0
56 -136 -137 0
-56 -136 137 0
56 136 137 0
-138 -69 0
-138 -37 0
69 37 138 0
137 138 -139 0
-137 -138 -139 0
137 -138 139 0
-137 138 139 0
-135 -139 -140 0
135 139 -140 0
-135 139 140 0
135 -139 140 0
-141 -99 0
-141 140 0
99 -140 141 0
-111 106 102 126 0
14 131 -105 115 0
98 -126 52 107 33 0
-118 125 0
-59 56 128 54 0
85 43 0
-15 -44 0
136 55 -28 -3 -128 0
-34 -14 135 -91 -118 9 0
135 -88 -93 0
-27 43 1 -8 114 -2 0
16 34 41 88 -109 134 0
50 -115 31 -28 0
1 133 -85 58 91 -52 0
91 103 -36 0
30 -21 23 70 88 -67 0
111 -101 63 0
-92 -68 138 24 0
-76 94 -7 88 54 85 0
-129 108 -36 117 40 -90 0
-124 31 0
-111 70 51 39 73 -80 0
65 139 108 126 0
79 85 -88 -52 102 121 0
77 105 11 19 -86 0
-45 39 -23 0
-81 -6 -39 0
-61 -88 51 0
-50 72 -8 127 0
86 114 -45 120 -68 60 0
100 -130 -112 36 19 70 0
121 95 -10 0
-125 86 -76 54 117 0
1 -109 22 -103 0
121 139 20 -24 0
-41 -140 -79 0
-53 23 -114 -10 -79 0
-79 43 -92 141 -35 0
-114 101 -121 -138 0
132 95 140 130 0
68 108 89 0
-135 -69 137 -67 0
59 -42 103 -45 115 46 0
74 -24 -26 33 -7 83 0
114 -100 32 0
89 -80 37 -38 10 3 0
-12 -8 -4 0
-100 -139 -10 -82 0
124 -63 129 14 -79 -30 0
-135 -91 0
-9 69 141 -131 81 0
-3 10 52 0
52 -131 -90 60 0
56 -59 -75 34 -42 0
48 -137 130 -113 0
-24 132 136 -121 -61 0
62 -19 -109 108 0
-94 -131 0
-97 30 9 0
-25 -40 -7 78 0
-54 138 123 18 0
16 113 49 -3 11 0
141 0
